CPXPARAM_TimeLimit                               7200
CPXPARAM_Read_DataCheck                          1
CPXPARAM_Output_IntSolFilePrefix                 "solucoes/t_sol_ini_ID000M003J005_ZintTrue_manne_ub33/sol"
Tried aggregator 1 time.
MIP Presolve eliminated 9 rows and 9 columns.
MIP Presolve modified 95 coefficients.
Reduced MIP has 66 rows, 37 columns, and 174 nonzeros.
Reduced MIP has 21 binaries, 0 generals, 0 SOSs, and 0 indicators.
Presolve time = 0.00 sec. (0.10 ticks)
Found incumbent of value 33.000000 after 0.00 sec. (0.20 ticks)
Probing fixed 6 vars, tightened 16 bounds.
Probing time = 0.00 sec. (0.07 ticks)
Tried aggregator 2 times.
MIP Presolve eliminated 8 rows and 6 columns.
MIP Presolve modified 25 coefficients.
Aggregator did 1 substitutions.
Reduced MIP has 57 rows, 30 columns, and 144 nonzeros.
Reduced MIP has 15 binaries, 0 generals, 0 SOSs, and 0 indicators.
Presolve time = 0.00 sec. (0.10 ticks)
Probing time = 0.00 sec. (0.05 ticks)
Tried aggregator 1 time.
MIP Presolve modified 2 coefficients.
Reduced MIP has 57 rows, 30 columns, and 144 nonzeros.
Reduced MIP has 15 binaries, 0 generals, 0 SOSs, and 0 indicators.
Presolve time = 0.00 sec. (0.08 ticks)
Probing time = 0.00 sec. (0.05 ticks)
Clique table members: 34.
MIP emphasis: balance optimality and feasibility.
MIP search method: dynamic search.
Parallel mode: deterministic, using up to 8 threads.
Root relaxation solution time = 0.00 sec. (0.10 ticks)

        Nodes                                         Cuts/
   Node  Left     Objective  IInf  Best Integer    Best Bound    ItCnt     Gap

*     0+    0                           33.0000       30.0000             9.09%
New incumbent written to file 'solucoes/t_sol_ini_ID000M003J005_ZintTrue_manne_ub33/sol-00001.sol'.
      0     0       30.0000     6       33.0000       30.0000        9    9.09%
      0     0       30.0000     3       33.0000      Cuts: 29       35    9.09%
      0     0       30.0000     4       33.0000      Cuts: 16       50    9.09%
      0     0       30.3529     5       33.0000      Cuts: 20       62    8.02%
      0     0       30.3529     6       33.0000       Cuts: 8       66    8.02%
      0     0        cutoff             33.0000       33.0000       66    0.00%
Elapsed time = 0.01 sec. (2.30 ticks, tree = 0.01 MB, solutions = 1)

Clique cuts applied:  2
Implied bound cuts applied:  8
Flow cuts applied:  2
Mixed integer rounding cuts applied:  5
Gomory fractional cuts applied:  1

Root node processing (before b&c):
  Real time             =    0.01 sec. (2.30 ticks)
Parallel b&c, 8 threads:
  Real time             =    0.00 sec. (0.00 ticks)
  Sync time (average)   =    0.00 sec.
  Wait time (average)   =    0.00 sec.
                          ------------
Total (root+branch&cut) =    0.01 sec. (2.30 ticks)
